50 603
0 2
0 3
0 4
0 7
0 8
0 10
0 11
0 14
0 15
0 16
0 17
0 19
0 20
0 22
0 24
0 28
0 31
0 32
0 35
0 36
0 37
0 38
0 39
0 42
0 43
0 46
0 49
1 2
1 6
1 7
1 9
1 10
1 11
1 12
1 15
1 18
1 24
1 25
1 26
1 28
1 33
1 36
1 38
1 42
1 44
1 46
1 48
1 49
2 4
2 7
2 8
2 9
2 10
2 12
2 14
2 15
2 21
2 23
2 24
2 26
2 27
2 28
2 30
2 31
2 32
2 37
2 38
2 39
2 41
2 42
2 43
2 46
2 47
2 48
3 4
3 7
3 11
3 12
3 14
3 15
3 16
3 17
3 19
3 21
3 25
3 26
3 27
3 29
3 30
3 32
3 36
3 37
3 38
3 39
3 40
3 43
3 44
3 46
3 47
3 48
4 9
4 13
4 17
4 18
4 23
4 24
4 25
4 26
4 27
4 28
4 29
4 30
4 31
4 32
4 34
4 36
4 37
4 38
4 42
4 43
4 45
4 46
4 48
5 6
5 7
5 9
5 10
5 12
5 17
5 18
5 20
5 21
5 25
5 27
5 28
5 30
5 33
5 34
5 37
5 40
5 43
5 44
5 46
5 49
6 7
6 10
6 11
6 12
6 15
6 19
6 20
6 21
6 22
6 23
6 24
6 25
6 28
6 32
6 35
6 38
6 39
6 42
6 44
6 45
6 47
7 11
7 13
7 15
7 18
7 19
7 22
7 24
7 25
7 27
7 29
7 30
7 31
7 34
7 36
7 38
7 40
7 42
7 45
7 46
7 47
7 49
8 11
8 13
8 15
8 22
8 27
8 29
8 30
8 31
8 32
8 36
8 37
8 38
8 44
8 46
8 49
9 11
9 12
9 13
9 14
9 15
9 16
9 17
9 23
9 24
9 25
9 27
9 29
9 33
9 35
9 37
9 41
9 43
9 46
10 11
10 12
10 13
10 14
10 15
10 16
10 20
10 21
10 22
10 23
10 26
10 27
10 31
10 33
10 34
10 35
10 36
10 38
10 40
10 41
10 44
10 46
10 49
11 14
11 21
11 24
11 29
11 30
11 32
11 36
11 37
11 38
11 40
11 43
11 44
11 46
11 47
11 49
12 16
12 17
12 18
12 19
12 20
12 21
12 22
12 25
12 26
12 29
12 30
12 31
12 33
12 34
12 36
12 47
12 48
12 49
13 18
13 20
13 22
13 23
13 24
13 26
13 29
13 32
13 34
13 40
13 41
13 43
13 44
13 45
13 46
13 47
13 49
14 16
14 17
14 18
14 20
14 21
14 22
14 25
14 27
14 28
14 29
14 32
14 37
14 38
14 39
14 40
14 45
14 48
15 17
15 18
15 19
15 23
15 24
15 25
15 26
15 27
15 29
15 33
15 34
15 36
15 40
15 41
15 43
15 44
15 45
15 46
15 47
15 49
16 17
16 19
16 21
16 23
16 25
16 27
16 28
16 29
16 31
16 32
16 35
16 36
16 38
16 41
16 43
16 46
17 18
17 19
17 20
17 23
17 24
17 25
17 28
17 30
17 34
17 35
17 37
17 40
17 41
17 42
17 43
17 44
17 45
17 48
18 19
18 21
18 22
18 23
18 25
18 26
18 27
18 30
18 31
18 34
18 36
18 41
18 42
18 43
18 45
18 49
19 22
19 24
19 25
19 26
19 30
19 31
19 32
19 33
19 35
19 39
19 40
19 41
19 42
19 46
19 49
20 24
20 26
20 27
20 28
20 29
20 30
20 31
20 32
20 33
20 41
20 43
20 44
20 46
21 22
21 23
21 24
21 26
21 29
21 30
21 31
21 36
21 37
21 38
21 39
21 40
21 41
21 42
21 43
21 46
21 47
22 23
22 25
22 31
22 39
22 40
22 41
22 49
23 26
23 27
23 30
23 32
23 33
23 34
23 36
23 39
23 42
23 43
23 47
23 48
24 26
24 27
24 29
24 30
24 31
24 32
24 36
24 39
24 44
24 45
24 47
25 27
25 32
25 33
25 34
25 36
25 37
25 41
25 43
25 45
25 47
25 48
25 49
26 27
26 28
26 30
26 32
26 35
26 36
26 37
26 38
26 42
26 43
26 47
26 48
26 49
27 30
27 32
27 33
27 34
27 35
27 36
27 37
27 38
27 39
27 40
27 41
27 42
27 43
27 45
28 32
28 35
28 36
28 37
28 38
28 39
28 40
28 41
28 43
28 46
28 47
29 36
29 37
29 38
29 39
29 42
29 43
29 45
29 46
29 48
29 49
30 33
30 37
30 38
30 40
30 42
30 43
30 44
30 46
30 47
30 48
31 32
31 33
31 34
31 39
31 40
31 43
31 46
31 48
31 49
32 33
32 35
32 36
32 42
32 43
32 48
33 35
33 37
33 38
33 43
33 45
33 46
33 49
34 35
34 36
34 37
34 38
34 40
34 41
34 43
34 45
34 46
34 48
35 37
35 39
36 37
36 38
36 42
36 44
36 45
36 49
37 38
37 39
37 40
37 42
37 44
37 46
37 47
37 48
38 39
38 40
38 42
38 46
38 47
38 48
38 49
39 41
39 43
39 44
39 45
39 46
39 48
40 42
40 44
40 45
40 46
40 47
41 44
41 45
41 47
41 49
42 43
42 48
44 47
44 48
45 47
46 48
46 49
47 48
47 49
